(benchmark gametime
:status unknown
:logic QF_AUFBV
:extrafuns ((gtINDEX53  BitVec[32]))
:extrafuns ((gtFIELD__bitsForTID0__gtAGG____anonstruct_D_Work_4  Array[32:32]))
:extrafuns ((gtINDEX54  BitVec[32]))
:extrafuns ((gtAGG__rtDWork  BitVec[32]))
:extrafuns ((gtINDEX51  BitVec[32]))
:extrafuns ((gtINDEX52  BitVec[32]))
:extrafuns ((gtINDEX49  BitVec[32]))
:extrafuns ((gtINDEX50  BitVec[32]))
:extrafuns ((gtINDEX47  BitVec[32]))
:extrafuns ((gtINDEX48  BitVec[32]))
:extrafuns ((gtINDEX46  BitVec[32]))
:extrafuns ((gtINDEX45  BitVec[32]))
:extrafuns ((gtINDEX44  BitVec[32]))
:extrafuns ((gtINDEX43  BitVec[32]))
:extrafuns ((gtINDEX41  BitVec[32]))
:extrafuns ((gtINDEX42  BitVec[32]))
:extrafuns ((gtINDEX39  BitVec[32]))
:extrafuns ((gtINDEX40  BitVec[32]))
:extrafuns ((gtINDEX37  BitVec[32]))
:extrafuns ((gtINDEX38  BitVec[32]))
:extrafuns ((gtINDEX35  BitVec[32]))
:extrafuns ((gtINDEX36  BitVec[32]))
:extrafuns ((gtINDEX33  BitVec[32]))
:extrafuns ((gtINDEX34  BitVec[32]))
:extrafuns ((gtINDEX31  BitVec[32]))
:extrafuns ((gtINDEX32  BitVec[32]))
:extrafuns ((gtINDEX30  BitVec[32]))
:extrafuns ((gtINDEX29  BitVec[32]))
:extrafuns ((gtINDEX27  BitVec[32]))
:extrafuns ((gtINDEX28  BitVec[32]))
:extrafuns ((gtINDEX25  BitVec[32]))
:extrafuns ((gtINDEX26  BitVec[32]))
:extrafuns ((gtINDEX23  BitVec[32]))
:extrafuns ((gtINDEX24  BitVec[32]))
:extrafuns ((gtINDEX22  BitVec[32]))
:extrafuns ((gtINDEX21  BitVec[32]))
:extrafuns ((gtINDEX20  BitVec[32]))
:extrafuns ((gtINDEX18  BitVec[32]))
:extrafuns ((gtINDEX19  BitVec[32]))
:extrafuns ((gtINDEX16  BitVec[32]))
:extrafuns ((gtINDEX17  BitVec[32]))
:extrafuns ((gtINDEX14  BitVec[32]))
:extrafuns ((gtINDEX15  BitVec[32]))
:extrafuns ((gtINDEX12  BitVec[32]))
:extrafuns ((gtINDEX13  BitVec[32]))
:extrafuns ((gtINDEX10  BitVec[32]))
:extrafuns ((gtINDEX11  BitVec[32]))
:extrafuns ((gtINDEX8  BitVec[32]))
:extrafuns ((gtINDEX9  BitVec[32]))
:extrafuns ((gtINDEX7  BitVec[32]))
:extrafuns ((gtINDEX6  BitVec[32]))
:extrafuns ((gtINDEX4  BitVec[32]))
:extrafuns ((gtINDEX5  BitVec[32]))
:extrafuns ((gtINDEX2  BitVec[32]))
:extrafuns ((gtINDEX3  BitVec[32]))
:extrafuns ((gtINDEX0  BitVec[32]))
:extrafuns ((gtINDEX1  BitVec[32]))
:extrafuns ((gtFIELD__is_Eng__gtAGG____anonstruct_bitsForTID0_5_1_  Array[32:1]))
:extrafuns ((gtFIELD__is_Eng__gtAGG____anonstruct_bitsForTID0_5_2_  Array[32:1]))
:extrafuns ((sf_previousEvent_1_  BitVec[32]))
:extrafuns ((sfEvent__2_  BitVec[32]))
:extrafuns ((gtFIELD__is_Eng__gtAGG____anonstruct_bitsForTID0_5  Array[32:1]))
:extrafuns ((gtFIELD__sent__gtAGG____anonstruct_D_Work_4_1_  Array[32:32]))
:extrafuns ((gtFIELD__sent__gtAGG____anonstruct_D_Work_4_2_  Array[32:32]))
:extrafuns ((gtFIELD__is_active_Eng__gtAGG____anonstruct_bitsForTID0_5  Array[32:1]))
:extrafuns ((gtFIELD__is_active_PURI__gtAGG____anonstruct_bitsForTID0_5  Array[32:1]))
:extrafuns ((gtFIELD__is_active_PVRP__gtAGG____anonstruct_bitsForTID0_5  Array[32:1]))
:extrafuns ((gtFIELD__is_active_PPVARP__gtAGG____anonstruct_bitsForTID0_5  Array[32:1]))
:extrafuns ((gtFIELD__is_active_PLRI__gtAGG____anonstruct_bitsForTID0_5  Array[32:1]))
:extrafuns ((sfEvent__1_  BitVec[32]))
:extrafuns ((gtFIELD__is_PAVI__gtAGG____anonstruct_bitsForTID0_5  Array[32:3]))
:extrafuns ((gtFIELD__is_active_PAVI__gtAGG____anonstruct_bitsForTID0_5  Array[32:1]))
:extrafuns ((sfEvent_  BitVec[32]))
:extrafuns ((gtFIELD__sent__gtAGG____anonstruct_D_Work_4  Array[32:32]))
:extrapreds ((constraint94 ))
:extrapreds ((constraint93 ))
:extrapreds ((constraint92 ))
:extrapreds ((constraint91 ))
:extrapreds ((constraint90 ))
:extrapreds ((constraint89 ))
:extrapreds ((constraint88 ))
:extrapreds ((constraint87 ))
:extrapreds ((constraint86 ))
:extrapreds ((constraint85 ))
:extrapreds ((constraint84 ))
:extrapreds ((constraint83 ))
:extrapreds ((constraint82 ))
:extrapreds ((constraint81 ))
:extrapreds ((constraint80 ))
:extrapreds ((constraint79 ))
:extrapreds ((constraint78 ))
:extrapreds ((constraint77 ))
:extrapreds ((constraint76 ))
:extrapreds ((constraint75 ))
:extrapreds ((constraint74 ))
:extrapreds ((constraint73 ))
:extrapreds ((constraint72 ))
:extrapreds ((constraint71 ))
:extrapreds ((constraint70 ))
:extrapreds ((constraint69 ))
:extrapreds ((constraint68 ))
:extrapreds ((constraint67 ))
:extrapreds ((constraint66 ))
:extrapreds ((constraint65 ))
:extrapreds ((constraint64 ))
:extrapreds ((constraint63 ))
:extrapreds ((constraint62 ))
:extrapreds ((constraint61 ))
:extrapreds ((constraint60 ))
:extrapreds ((constraint59 ))
:extrapreds ((constraint58 ))
:extrapreds ((constraint57 ))
:extrapreds ((constraint56 ))
:extrapreds ((constraint55 ))
:extrapreds ((constraint54 ))
:extrapreds ((constraint53 ))
:extrapreds ((constraint52 ))
:extrapreds ((constraint51 ))
:extrapreds ((constraint50 ))
:extrapreds ((constraint49 ))
:extrapreds ((constraint48 ))
:extrapreds ((constraint47 ))
:extrapreds ((constraint46 ))
:extrapreds ((constraint45 ))
:extrapreds ((constraint44 ))
:extrapreds ((constraint43 ))
:extrapreds ((constraint42 ))
:extrapreds ((constraint41 ))
:extrapreds ((constraint40 ))
:extrapreds ((constraint39 ))
:extrapreds ((constraint38 ))
:extrapreds ((constraint37 ))
:extrapreds ((constraint36 ))
:extrapreds ((constraint35 ))
:extrapreds ((constraint34 ))
:extrapreds ((constraint33 ))
:extrapreds ((constraint32 ))
:extrapreds ((constraint31 ))
:extrapreds ((constraint30 ))
:extrapreds ((constraint29 ))
:extrapreds ((constraint28 ))
:extrapreds ((constraint27 ))
:extrapreds ((constraint26 ))
:extrapreds ((constraint25 ))
:extrapreds ((constraint24 ))
:extrapreds ((constraint23 ))
:extrapreds ((constraint22 ))
:extrapreds ((constraint21 ))
:extrapreds ((constraint20 ))
:extrapreds ((constraint19 ))
:extrapreds ((constraint18 ))
:extrapreds ((constraint17 ))
:extrapreds ((constraint16 ))
:extrapreds ((constraint15 ))
:extrapreds ((constraint14 ))
:extrapreds ((constraint13 ))
:extrapreds ((constraint12 ))
:extrapreds ((constraint11 ))
:extrapreds ((constraint10 ))
:extrapreds ((constraint9 ))
:extrapreds ((constraint8 ))
:extrapreds ((constraint7 ))
:extrapreds ((constraint6 ))
:extrapreds ((constraint5 ))
:extrapreds ((constraint4 ))
:extrapreds ((constraint3 ))
:extrapreds ((constraint2 ))
:extrapreds ((constraint1 ))
:extrapreds ((constraint0 ))
:formula
(flet ($x501 (and constraint0 constraint1 constraint2 constraint3 constraint4 constraint5 constraint6 constraint7 constraint8 constraint9 constraint10 constraint11 constraint12 constraint13 constraint14 constraint15 constraint16 constraint17 constraint18 constraint19 constraint20 constraint21 constraint22 constraint23 constraint24 constraint25 constraint26 constraint27 constraint28 constraint29 constraint30 constraint31 constraint32 constraint33 constraint34 constraint35 constraint36 constraint37 constraint38 constraint39 constraint40 constraint41 constraint42 constraint43 constraint44 constraint45 constraint46 constraint47 constraint48 constraint49 constraint50 constraint51 constraint52 constraint53 constraint54 constraint55 constraint56 constraint57 constraint58 constraint59 constraint60 constraint61 constraint62 constraint63 constraint64 constraint65 constraint66 constraint67 constraint68 constraint69 constraint70 constraint71 constraint72 constraint73 constraint74 constraint75 constraint76 constraint77 constraint78 constraint79 constraint80 constraint81 constraint82 constraint83 constraint84 constraint85 constraint86 constraint87 constraint88 constraint89 constraint90 constraint91 constraint92 constraint93 constraint94))
(flet ($x309 (= gtINDEX54 (select gtFIELD__bitsForTID0__gtAGG____anonstruct_D_Work_4 gtINDEX53)))
(flet ($x305 (= gtINDEX52 (select gtFIELD__bitsForTID0__gtAGG____anonstruct_D_Work_4 gtINDEX51)))
(flet ($x301 (= gtINDEX50 (select gtFIELD__bitsForTID0__gtAGG____anonstruct_D_Work_4 gtINDEX49)))
(flet ($x297 (= gtINDEX48 (select gtFIELD__bitsForTID0__gtAGG____anonstruct_D_Work_4 gtINDEX47)))
(flet ($x289 (= gtINDEX42 (select gtFIELD__bitsForTID0__gtAGG____anonstruct_D_Work_4 gtINDEX41)))
(flet ($x285 (= gtINDEX40 (select gtFIELD__bitsForTID0__gtAGG____anonstruct_D_Work_4 gtINDEX39)))
(flet ($x281 (= gtINDEX38 (select gtFIELD__bitsForTID0__gtAGG____anonstruct_D_Work_4 gtINDEX37)))
(flet ($x277 (= gtINDEX36 (select gtFIELD__bitsForTID0__gtAGG____anonstruct_D_Work_4 gtINDEX35)))
(flet ($x273 (= gtINDEX34 (select gtFIELD__bitsForTID0__gtAGG____anonstruct_D_Work_4 gtINDEX33)))
(flet ($x269 (= gtINDEX32 (select gtFIELD__bitsForTID0__gtAGG____anonstruct_D_Work_4 gtINDEX31)))
(flet ($x263 (= gtINDEX28 (select gtFIELD__bitsForTID0__gtAGG____anonstruct_D_Work_4 gtINDEX27)))
(flet ($x259 (= gtINDEX26 (select gtFIELD__bitsForTID0__gtAGG____anonstruct_D_Work_4 gtINDEX25)))
(flet ($x255 (= gtINDEX24 (select gtFIELD__bitsForTID0__gtAGG____anonstruct_D_Work_4 gtINDEX23)))
(flet ($x248 (= gtINDEX19 (select gtFIELD__bitsForTID0__gtAGG____anonstruct_D_Work_4 gtINDEX18)))
(flet ($x244 (= gtINDEX17 (select gtFIELD__bitsForTID0__gtAGG____anonstruct_D_Work_4 gtINDEX16)))
(flet ($x240 (= gtINDEX15 (select gtFIELD__bitsForTID0__gtAGG____anonstruct_D_Work_4 gtINDEX14)))
(flet ($x236 (= gtINDEX13 (select gtFIELD__bitsForTID0__gtAGG____anonstruct_D_Work_4 gtINDEX12)))
(flet ($x232 (= gtINDEX11 (select gtFIELD__bitsForTID0__gtAGG____anonstruct_D_Work_4 gtINDEX10)))
(flet ($x228 (= gtINDEX9 (select gtFIELD__bitsForTID0__gtAGG____anonstruct_D_Work_4 gtINDEX8)))
(flet ($x222 (= gtINDEX5 (select gtFIELD__bitsForTID0__gtAGG____anonstruct_D_Work_4 gtINDEX4)))
(flet ($x218 (= gtINDEX3 (select gtFIELD__bitsForTID0__gtAGG____anonstruct_D_Work_4 gtINDEX2)))
(flet ($x214 (= gtINDEX1 (select gtFIELD__bitsForTID0__gtAGG____anonstruct_D_Work_4 gtINDEX0)))
(let (?x198 (extract[0:0] bv1[32]))
(let (?x208 (store gtFIELD__is_Eng__gtAGG____anonstruct_bitsForTID0_5_1_ gtINDEX54 ?x198))
(flet ($x389 (iff constraint39 (= gtFIELD__is_Eng__gtAGG____anonstruct_bitsForTID0_5_2_ ?x208)))
(let (?x204 (select gtFIELD__is_Eng__gtAGG____anonstruct_bitsForTID0_5_1_ gtINDEX52))
(let (?x199 (store gtFIELD__is_Eng__gtAGG____anonstruct_bitsForTID0_5 gtINDEX50 ?x198))
(flet ($x383 (iff constraint36 (= gtFIELD__is_Eng__gtAGG____anonstruct_bitsForTID0_5_1_ ?x199)))
(let (?x195 (zero_extend[31] (select gtFIELD__is_Eng__gtAGG____anonstruct_bitsForTID0_5 gtINDEX48)))
(let (?x191 (store gtFIELD__sent__gtAGG____anonstruct_D_Work_4_1_ gtINDEX46 bv0[32]))
(flet ($x379 (iff constraint34 (= gtFIELD__sent__gtAGG____anonstruct_D_Work_4_2_ ?x191)))
(let (?x112 (bvmul bv4294967295[32] bv1[32]))
(flet ($x189 (= (select gtFIELD__sent__gtAGG____anonstruct_D_Work_4_1_ gtINDEX45) ?x112))
(flet ($x185 (= (select gtFIELD__sent__gtAGG____anonstruct_D_Work_4_1_ gtINDEX44) bv9[32]))
(flet ($x181 (= (select gtFIELD__sent__gtAGG____anonstruct_D_Work_4_1_ gtINDEX43) bv4[32]))
(let (?x177 (zero_extend[31] (select gtFIELD__is_Eng__gtAGG____anonstruct_bitsForTID0_5 gtINDEX42)))
(let (?x171 (select gtFIELD__is_active_Eng__gtAGG____anonstruct_bitsForTID0_5 gtINDEX40))
(let (?x165 (select gtFIELD__is_active_PURI__gtAGG____anonstruct_bitsForTID0_5 gtINDEX38))
(let (?x159 (select gtFIELD__is_active_PVRP__gtAGG____anonstruct_bitsForTID0_5 gtINDEX36))
(let (?x153 (select gtFIELD__is_active_PPVARP__gtAGG____anonstruct_bitsForTID0_5 gtINDEX34))
(let (?x147 (select gtFIELD__is_active_PLRI__gtAGG____anonstruct_bitsForTID0_5 gtINDEX32))
(flet ($x142 (= (select gtFIELD__sent__gtAGG____anonstruct_D_Work_4_1_ gtINDEX30) bv0[32]))
(flet ($x138 (= (select gtFIELD__sent__gtAGG____anonstruct_D_Work_4_1_ gtINDEX29) bv0[32]))
(let (?x133 (select gtFIELD__is_PAVI__gtAGG____anonstruct_bitsForTID0_5 gtINDEX28))
(let (?x128 (select gtFIELD__is_PAVI__gtAGG____anonstruct_bitsForTID0_5 gtINDEX26))
(let (?x123 (select gtFIELD__is_active_PAVI__gtAGG____anonstruct_bitsForTID0_5 gtINDEX24))
(flet ($x114 (= gtFIELD__sent__gtAGG____anonstruct_D_Work_4_1_ (store gtFIELD__sent__gtAGG____anonstruct_D_Work_4 gtINDEX22 ?x112)))
(flet ($x109 (= (select gtFIELD__sent__gtAGG____anonstruct_D_Work_4 gtINDEX21) bv9[32]))
(flet ($x104 (= (select gtFIELD__sent__gtAGG____anonstruct_D_Work_4 gtINDEX20) bv4[32]))
(let (?x99 (zero_extend[31] (select gtFIELD__is_Eng__gtAGG____anonstruct_bitsForTID0_5 gtINDEX19)))
(let (?x93 (select gtFIELD__is_active_Eng__gtAGG____anonstruct_bitsForTID0_5 gtINDEX17))
(let (?x87 (select gtFIELD__is_active_PURI__gtAGG____anonstruct_bitsForTID0_5 gtINDEX15))
(let (?x81 (select gtFIELD__is_active_PVRP__gtAGG____anonstruct_bitsForTID0_5 gtINDEX13))
(let (?x75 (select gtFIELD__is_active_PPVARP__gtAGG____anonstruct_bitsForTID0_5 gtINDEX11))
(let (?x69 (select gtFIELD__is_active_PLRI__gtAGG____anonstruct_bitsForTID0_5 gtINDEX9))
(flet ($x63 (= (select gtFIELD__sent__gtAGG____anonstruct_D_Work_4 gtINDEX7) bv0[32]))
(flet ($x59 (= (select gtFIELD__sent__gtAGG____anonstruct_D_Work_4 gtINDEX6) bv0[32]))
(let (?x54 (zero_extend[29] (select gtFIELD__is_PAVI__gtAGG____anonstruct_bitsForTID0_5 gtINDEX5)))
(let (?x48 (zero_extend[29] (select gtFIELD__is_PAVI__gtAGG____anonstruct_bitsForTID0_5 gtINDEX3)))
(let (?x41 (select gtFIELD__is_active_PAVI__gtAGG____anonstruct_bitsForTID0_5 gtINDEX1))
(flet ($x500 (and (iff constraint0 (not (= sfEvent_ bv8[32]))) (iff constraint1 (not (= (zero_extend[31] ?x41) bv0[32]))) (iff constraint2 (not (= ?x48 bv1[32]))) (iff constraint3 (= ?x54 bv2[32])) (iff constraint4 (not $x59)) (iff constraint5 (not $x63)) (iff constraint6 (not (= sfEvent_ bv5[32]))) (iff constraint7 (not (not (= (zero_extend[31] ?x69) bv0[32])))) (iff constraint8 (not (not (= (zero_extend[31] ?x75) bv0[32])))) (iff constraint9 (not (not (= (zero_extend[31] ?x81) bv0[32])))) (iff constraint10 (not (not (= (zero_extend[31] ?x87) bv0[32])))) (iff constraint11 (not (= (zero_extend[31] ?x93) bv0[32]))) (iff constraint12 (= ?x99 bv1[32])) (iff constraint13 (not $x104)) (iff constraint14 $x109) (iff constraint15 $x114) (iff constraint16 (= sf_previousEvent_1_ sfEvent_)) (iff constraint17 (= sfEvent__1_ bv6[32])) (iff constraint18 (not (= sfEvent__1_ bv8[32]))) (iff constraint19 (not (= (zero_extend[31] ?x123) bv0[32]))) (iff constraint20 (not (= (zero_extend[29] ?x128) bv1[32]))) (iff constraint21 (= (zero_extend[29] ?x133) bv2[32])) (iff constraint22 (not $x138)) (iff constraint23 (not $x142)) (iff constraint24 (not (= sfEvent__1_ bv5[32]))) (iff constraint25 (not (not (= (zero_extend[31] ?x147) bv0[32])))) (iff constraint26 (not (not (= (zero_extend[31] ?x153) bv0[32])))) (iff constraint27 (not (not (= (zero_extend[31] ?x159) bv0[32])))) (iff constraint28 (not (not (= (zero_extend[31] ?x165) bv0[32])))) (iff constraint29 (not (= (zero_extend[31] ?x171) bv0[32]))) (iff constraint30 (= ?x177 bv1[32])) (iff constraint31 (not $x181)) (iff constraint32 (not $x185)) (iff constraint33 $x189) $x379 (iff constraint35 (= ?x195 bv1[32])) $x383 (iff constraint37 (= sfEvent__2_ sf_previousEvent_1_)) (iff constraint38 (= (zero_extend[31] ?x204) bv1[32])) $x389 (iff constraint40 (= gtINDEX0 gtAGG__rtDWork)) (iff constraint41 $x214) (iff constraint42 (= gtINDEX2 gtAGG__rtDWork)) (iff constraint43 $x218) (iff constraint44 (= gtINDEX4 gtAGG__rtDWork)) (iff constraint45 $x222) (iff constraint46 (= gtINDEX6 gtAGG__rtDWork)) (iff constraint47 (= gtINDEX7 gtAGG__rtDWork)) (iff constraint48 (= gtINDEX8 gtAGG__rtDWork)) (iff constraint49 $x228) (iff constraint50 (= gtINDEX10 gtAGG__rtDWork)) (iff constraint51 $x232) (iff constraint52 (= gtINDEX12 gtAGG__rtDWork)) (iff constraint53 $x236) (iff constraint54 (= gtINDEX14 gtAGG__rtDWork)) (iff constraint55 $x240) (iff constraint56 (= gtINDEX16 gtAGG__rtDWork)) (iff constraint57 $x244) (iff constraint58 (= gtINDEX18 gtAGG__rtDWork)) (iff constraint59 $x248) (iff constraint60 (= gtINDEX20 gtAGG__rtDWork)) (iff constraint61 (= gtINDEX21 gtAGG__rtDWork)) (iff constraint62 (= gtINDEX22 gtAGG__rtDWork)) (iff constraint63 (= gtINDEX23 gtAGG__rtDWork)) (iff constraint64 $x255) (iff constraint65 (= gtINDEX25 gtAGG__rtDWork)) (iff constraint66 $x259) (iff constraint67 (= gtINDEX27 gtAGG__rtDWork)) (iff constraint68 $x263) (iff constraint69 (= gtINDEX29 gtAGG__rtDWork)) (iff constraint70 (= gtINDEX30 gtAGG__rtDWork)) (iff constraint71 (= gtINDEX31 gtAGG__rtDWork)) (iff constraint72 $x269) (iff constraint73 (= gtINDEX33 gtAGG__rtDWork)) (iff constraint74 $x273) (iff constraint75 (= gtINDEX35 gtAGG__rtDWork)) (iff constraint76 $x277) (iff constraint77 (= gtINDEX37 gtAGG__rtDWork)) (iff constraint78 $x281) (iff constraint79 (= gtINDEX39 gtAGG__rtDWork)) (iff constraint80 $x285) (iff constraint81 (= gtINDEX41 gtAGG__rtDWork)) (iff constraint82 $x289) (iff constraint83 (= gtINDEX43 gtAGG__rtDWork)) (iff constraint84 (= gtINDEX44 gtAGG__rtDWork)) (iff constraint85 (= gtINDEX45 gtAGG__rtDWork)) (iff constraint86 (= gtINDEX46 gtAGG__rtDWork)) (iff constraint87 (= gtINDEX47 gtAGG__rtDWork)) (iff constraint88 $x297) (iff constraint89 (= gtINDEX49 gtAGG__rtDWork)) (iff constraint90 $x301) (iff constraint91 (= gtINDEX51 gtAGG__rtDWork)) (iff constraint92 $x305) (iff constraint93 (= gtINDEX53 gtAGG__rtDWork)) (iff constraint94 $x309)))
(and $x500 $x501)))))))))))))))))))))))))))))))))))))))))))))))))))))))))))))))
)
